50
1 0 10
2 0 2
2 1 14
3 0 1
3 1 33
3 2 2
4 0 35
4 1 22
4 2 17
4 3 23
5 0 16
5 1 11
5 2 9
5 3 11
5 4 3
6 0 16
6 1 23
6 2 4
6 3 39
6 4 14
6 5 38
7 0 38
7 1 17
7 2 29
7 3 5
7 4 6
7 5 27
7 6 22
8 0 15
8 1 40
8 2 31
8 3 11
8 4 36
8 5 5
8 6 38
8 7 4
9 0 13
9 1 10
9 2 27
9 3 36
9 4 14
9 5 21
9 6 8
9 7 19
9 8 9
10 0 30
10 1 4
10 2 34
10 3 37
10 4 32
10 5 28
10 6 6
10 7 16
10 8 22
10 9 9
11 0 6
11 1 3
11 2 30
11 3 29
11 4 21
11 5 6
11 6 27
11 7 16
11 8 4
11 9 8
11 10 27
12 0 12
12 1 7
12 2 17
12 3 32
12 4 16
12 5 22
12 6 13
12 7 8
12 8 14
12 9 14
12 10 39
12 11 38
13 0 34
13 1 18
13 2 27
13 3 20
13 4 7
13 5 29
13 6 4
13 7 38
13 8 36
13 9 14
13 10 1
13 11 24
13 12 26
14 0 16
14 1 7
14 2 38
14 3 40
14 4 29
14 5 2
14 6 30
14 7 27
14 8 12
14 9 17
14 10 27
14 11 40
14 12 26
14 13 8
15 0 4
15 1 3
15 2 26
15 3 23
15 4 30
15 5 14
15 6 5
15 7 31
15 8 15
15 9 6
15 10 34
15 11 35
15 12 25
15 13 26
15 14 36
16 0 18
16 1 29
16 2 17
16 3 26
16 4 37
16 5 33
16 6 11
16 7 29
16 8 1
16 9 34
16 10 5
16 11 18
16 12 31
16 13 24
16 14 8
16 15 5
17 0 25
17 1 40
17 2 32
17 3 38
17 4 39
17 5 39
17 6 9
17 7 39
17 8 2
17 9 18
17 10 32
17 11 7
17 12 35
17 13 9
17 14 4
17 15 3
17 16 31
18 0 33
18 1 29
18 2 22
18 3 31
18 4 25
18 5 7
18 6 30
18 7 33
18 8 32
18 9 33
18 10 15
18 11 16
18 12 32
18 13 39
18 14 27
18 15 17
18 16 28
18 17 18
19 0 28
19 1 7
19 2 9
19 3 9
19 4 12
19 5 28
19 6 23
19 7 9
19 8 3
19 9 39
19 10 15
19 11 36
19 12 33
19 13 35
19 14 3
19 15 22
19 16 3
19 17 21
19 18 40
20 0 22
20 1 28
20 2 27
20 3 27
20 4 25
20 5 26
20 6 9
20 7 3
20 8 37
20 9 18
20 10 3
20 11 40
20 12 33
20 13 40
20 14 31
20 15 35
20 16 23
20 17 17
20 18 23
20 19 14
21 0 31
21 1 27
21 2 9
21 3 28
21 4 37
21 5 25
21 6 18
21 7 4
21 8 18
21 9 39
21 10 27
21 11 29
21 12 15
21 13 14
21 14 28
21 15 31
21 16 10
21 17 14
21 18 21
21 19 23
21 20 26
22 0 7
22 1 5
22 2 25
22 3 6
22 4 22
22 5 13
22 6 35
22 7 15
22 8 28
22 9 27
22 10 36
22 11 20
22 12 25
22 13 8
22 14 26
22 15 36
22 16 16
22 17 16
22 18 36
22 19 2
22 20 16
22 21 35
23 0 29
23 1 9
23 2 20
23 3 17
23 4 16
23 5 37
23 6 6
23 7 11
23 8 32
23 9 8
23 10 39
23 11 19
23 12 1
23 13 14
23 14 24
23 15 27
23 16 31
23 17 40
23 18 11
23 19 23
23 20 39
23 21 21
23 22 3
24 0 17
24 1 19
24 2 24
24 3 16
24 4 12
24 5 27
24 6 18
24 7 5
24 8 15
24 9 33
24 10 26
24 11 30
24 12 1
24 13 35
24 14 22
24 15 8
24 16 29
24 17 18
24 18 21
24 19 10
24 20 36
24 21 16
24 22 17
24 23 31
25 0 22
25 1 20
25 2 23
25 3 5
25 4 30
25 5 27
25 6 19
25 7 22
25 8 34
25 9 2
25 10 15
25 11 6
25 12 29
25 13 34
25 14 21
25 15 6
25 16 15
25 17 33
25 18 25
25 19 16
25 20 36
25 21 15
25 22 12
25 23 37
25 24 23
26 0 14
26 1 31
26 2 24
26 3 18
26 4 23
26 5 2
26 6 2
26 7 29
26 8 14
26 9 10
26 10 38
26 11 2
26 12 21
26 13 37
26 14 36
26 15 7
26 16 34
26 17 22
26 18 14
26 19 31
26 20 34
26 21 19
26 22 35
26 23 16
26 24 11
26 25 36
27 0 17
27 1 37
27 2 37
27 3 39
27 4 2
27 5 22
27 6 13
27 7 29
27 8 31
27 9 31
27 10 35
27 11 32
27 12 24
27 13 26
27 14 37
27 15 29
27 16 38
27 17 3
27 18 9
27 19 28
27 20 9
27 21 10
27 22 34
27 23 32
27 24 30
27 25 12
27 26 5
28 0 5
28 1 31
28 2 35
28 3 19
28 4 19
28 5 14
28 6 40
28 7 6
28 8 13
28 9 17
28 10 32
28 11 7
28 12 12
28 13 22
28 14 26
28 15 1
28 16 24
28 17 32
28 18 29
28 19 37
28 20 27
28 21 36
28 22 22
28 23 25
28 24 15
28 25 25
28 26 21
28 27 15
29 0 23
29 1 5
29 2 20
29 3 37
29 4 16
29 5 20
29 6 12
29 7 12
29 8 39
29 9 5
29 10 14
29 11 15
29 12 23
29 13 40
29 14 9
29 15 22
29 16 34
29 17 23
29 18 9
29 19 5
29 20 7
29 21 40
29 22 28
29 23 5
29 24 39
29 25 38
29 26 32
29 27 27
29 28 26
30 0 13
30 1 19
30 2 2
30 3 20
30 4 1
30 5 9
30 6 15
30 7 25
30 8 27
30 9 32
30 10 7
30 11 40
30 12 3
30 13 40
30 14 16
30 15 29
30 16 27
30 17 36
30 18 31
30 19 24
30 20 17
30 21 25
30 22 20
30 23 16
30 24 21
30 25 8
30 26 13
30 27 14
30 28 23
30 29 6
31 0 10
31 1 28
31 2 16
31 3 37
31 4 30
31 5 30
31 6 36
31 7 14
31 8 10
31 9 4
31 10 30
31 11 22
31 12 37
31 13 25
31 14 32
31 15 4
31 16 16
31 17 2
31 18 10
31 19 22
31 20 37
31 21 2
31 22 12
31 23 7
31 24 22
31 25 31
31 26 22
31 27 40
31 28 6
31 29 23
31 30 18
32 0 9
32 1 5
32 2 30
32 3 33
32 4 22
32 5 15
32 6 20
32 7 33
32 8 11
32 9 35
32 10 15
32 11 4
32 12 2
32 13 30
32 14 31
32 15 1
32 16 17
32 17 37
32 18 19
32 19 12
32 20 34
32 21 22
32 22 18
32 23 6
32 24 36
32 25 33
32 26 31
32 27 1
32 28 20
32 29 1
32 30 40
32 31 15
33 0 20
33 1 32
33 2 9
33 3 11
33 4 7
33 5 36
33 6 15
33 7 21
33 8 12
33 9 5
33 10 27
33 11 30
33 12 28
33 13 2
33 14 22
33 15 24
33 16 29
33 17 29
33 18 37
33 19 3
33 20 38
33 21 29
33 22 2
33 23 18
33 24 38
33 25 30
33 26 9
33 27 21
33 28 5
33 29 4
33 30 37
33 31 8
33 32 25
34 0 20
34 1 17
34 2 2
34 3 14
34 4 9
34 5 28
34 6 8
34 7 40
34 8 12
34 9 14
34 10 14
34 11 2
34 12 15
34 13 30
34 14 15
34 15 6
34 16 28
34 17 32
34 18 16
34 19 31
34 20 35
34 21 27
34 22 3
34 23 38
34 24 27
34 25 33
34 26 11
34 27 28
34 28 2
34 29 40
34 30 28
34 31 35
34 32 1
34 33 30
35 0 1
35 1 21
35 2 1
35 3 3
35 4 19
35 5 25
35 6 39
35 7 10
35 8 3
35 9 13
35 10 14
35 11 11
35 12 1
35 13 26
35 14 32
35 15 14
35 16 28
35 17 21
35 18 27
35 19 1
35 20 16
35 21 15
35 22 26
35 23 18
35 24 37
35 25 35
35 26 6
35 27 25
35 28 21
35 29 18
35 30 27
35 31 5
35 32 22
35 33 26
35 34 29
36 0 29
36 1 11
36 2 22
36 3 38
36 4 5
36 5 22
36 6 28
36 7 23
36 8 16
36 9 3
36 10 15
36 11 34
36 12 4
36 13 28
36 14 39
36 15 3
36 16 6
36 17 36
36 18 5
36 19 18
36 20 24
36 21 20
36 22 23
36 23 1
36 24 15
36 25 39
36 26 2
36 27 5
36 28 20
36 29 11
36 30 20
36 31 16
36 32 32
36 33 31
36 34 28
36 35 6
37 0 1
37 1 29
37 2 37
37 3 17
37 4 12
37 5 29
37 6 4
37 7 25
37 8 10
37 9 20
37 10 39
37 11 40
37 12 31
37 13 16
37 14 28
37 15 17
37 16 30
37 17 14
37 18 14
37 19 25
37 20 17
37 21 6
37 22 5
37 23 16
37 24 7
37 25 8
37 26 4
37 27 28
37 28 40
37 29 10
37 30 33
37 31 22
37 32 33
37 33 32
37 34 18
37 35 5
37 36 19
38 0 32
38 1 25
38 2 24
38 3 2
38 4 17
38 5 33
38 6 17
38 7 32
38 8 27
38 9 31
38 10 15
38 11 36
38 12 1
38 13 30
38 14 5
38 15 35
38 16 23
38 17 16
38 18 27
38 19 9
38 20 17
38 21 3
38 22 26
38 23 29
38 24 4
38 25 5
38 26 3
38 27 15
38 28 5
38 29 2
38 30 23
38 31 2
38 32 24
38 33 5
38 34 38
38 35 10
38 36 35
38 37 26
39 0 11
39 1 24
39 2 23
39 3 23
39 4 20
39 5 31
39 6 6
39 7 34
39 8 34
39 9 9
39 10 14
39 11 7
39 12 12
39 13 38
39 14 8
39 15 8
39 16 28
39 17 29
39 18 21
39 19 17
39 20 18
39 21 9
39 22 4
39 23 7
39 24 10
39 25 10
39 26 37
39 27 28
39 28 15
39 29 20
39 30 14
39 31 34
39 32 9
39 33 22
39 34 32
39 35 8
39 36 14
39 37 17
39 38 14
40 0 21
40 1 6
40 2 32
40 3 35
40 4 34
40 5 26
40 6 6
40 7 29
40 8 25
40 9 21
40 10 13
40 11 29
40 12 29
40 13 8
40 14 29
40 15 5
40 16 11
40 17 3
40 18 32
40 19 34
40 20 23
40 21 4
40 22 29
40 23 11
40 24 19
40 25 26
40 26 13
40 27 35
40 28 6
40 29 25
40 30 20
40 31 11
40 32 39
40 33 12
40 34 4
40 35 35
40 36 9
40 37 38
40 38 30
40 39 2
41 0 16
41 1 39
41 2 38
41 3 23
41 4 22
41 5 18
41 6 27
41 7 16
41 8 13
41 9 17
41 10 13
41 11 26
41 12 29
41 13 28
41 14 23
41 15 35
41 16 28
41 17 25
41 18 15
41 19 2
41 20 24
41 21 7
41 22 28
41 23 9
41 24 1
41 25 18
41 26 8
41 27 9
41 28 37
41 29 15
41 30 38
41 31 5
41 32 33
41 33 39
41 34 16
41 35 24
41 36 18
41 37 38
41 38 24
41 39 40
41 40 6
42 0 37
42 1 32
42 2 32
42 3 5
42 4 3
42 5 30
42 6 6
42 7 4
42 8 27
42 9 13
42 10 6
42 11 39
42 12 31
42 13 10
42 14 16
42 15 23
42 16 19
42 17 10
42 18 38
42 19 36
42 20 30
42 21 35
42 22 22
42 23 38
42 24 19
42 25 16
42 26 38
42 27 9
42 28 35
42 29 6
42 30 23
42 31 34
42 32 19
42 33 32
42 34 33
42 35 8
42 36 11
42 37 22
42 38 33
42 39 8
42 40 32
42 41 13
43 0 23
43 1 6
43 2 11
43 3 6
43 4 21
43 5 2
43 6 39
43 7 31
43 8 40
43 9 28
43 10 25
43 11 32
43 12 20
43 13 32
43 14 9
43 15 39
43 16 9
43 17 20
43 18 32
43 19 25
43 20 19
43 21 9
43 22 1
43 23 6
43 24 6
43 25 11
43 26 20
43 27 6
43 28 4
43 29 29
43 30 14
43 31 20
43 32 5
43 33 3
43 34 9
43 35 30
43 36 35
43 37 29
43 38 2
43 39 5
43 40 12
43 41 38
43 42 3
44 0 25
44 1 30
44 2 1
44 3 34
44 4 28
44 5 15
44 6 3
44 7 24
44 8 8
44 9 17
44 10 6
44 11 23
44 12 4
44 13 4
44 14 36
44 15 38
44 16 1
44 17 28
44 18 9
44 19 36
44 20 17
44 21 36
44 22 38
44 23 38
44 24 40
44 25 10
44 26 9
44 27 11
44 28 34
44 29 21
44 30 31
44 31 23
44 32 12
44 33 18
44 34 2
44 35 26
44 36 15
44 37 28
44 38 11
44 39 11
44 40 21
44 41 26
44 42 3
44 43 2
45 0 36
45 1 30
45 2 13
45 3 28
45 4 17
45 5 29
45 6 9
45 7 7
45 8 13
45 9 13
45 10 35
45 11 19
45 12 40
45 13 30
45 14 32
45 15 26
45 16 8
45 17 6
45 18 7
45 19 4
45 20 9
45 21 3
45 22 27
45 23 20
45 24 8
45 25 26
45 26 18
45 27 39
45 28 39
45 29 26
45 30 9
45 31 9
45 32 4
45 33 33
45 34 36
45 35 27
45 36 29
45 37 20
45 38 33
45 39 39
45 40 30
45 41 36
45 42 3
45 43 11
45 44 12
46 0 28
46 1 35
46 2 18
46 3 18
46 4 7
46 5 16
46 6 31
46 7 23
46 8 15
46 9 15
46 10 33
46 11 12
46 12 32
46 13 12
46 14 34
46 15 6
46 16 5
46 17 11
46 18 23
46 19 1
46 20 27
46 21 17
46 22 23
46 23 33
46 24 25
46 25 2
46 26 2
46 27 31
46 28 8
46 29 13
46 30 13
46 31 16
46 32 27
46 33 15
46 34 4
46 35 10
46 36 7
46 37 17
46 38 39
46 39 35
46 40 9
46 41 32
46 42 19
46 43 2
46 44 29
46 45 15
47 0 37
47 1 9
47 2 36
47 3 20
47 4 10
47 5 4
47 6 5
47 7 24
47 8 25
47 9 26
47 10 30
47 11 8
47 12 2
47 13 18
47 14 32
47 15 18
47 16 40
47 17 1
47 18 11
47 19 6
47 20 7
47 21 9
47 22 8
47 23 12
47 24 6
47 25 8
47 26 21
47 27 3
47 28 23
47 29 24
47 30 36
47 31 14
47 32 2
47 33 16
47 34 34
47 35 15
47 36 39
47 37 15
47 38 13
47 39 19
47 40 28
47 41 15
47 42 22
47 43 14
47 44 16
47 45 13
47 46 2
48 0 28
48 1 35
48 2 27
48 3 3
48 4 13
48 5 10
48 6 5
48 7 24
48 8 25
48 9 29
48 10 31
48 11 7
48 12 10
48 13 23
48 14 6
48 15 25
48 16 23
48 17 34
48 18 12
48 19 30
48 20 36
48 21 34
48 22 32
48 23 33
48 24 31
48 25 1
48 26 40
48 27 24
48 28 26
48 29 7
48 30 28
48 31 8
48 32 3
48 33 29
48 34 37
48 35 21
48 36 34
48 37 31
48 38 20
48 39 39
48 40 34
48 41 2
48 42 9
48 43 36
48 44 30
48 45 38
48 46 19
48 47 37
49 0 15
49 1 20
49 2 13
49 3 10
49 4 40
49 5 16
49 6 28
49 7 11
49 8 12
49 9 12
49 10 29
49 11 10
49 12 34
49 13 3
49 14 3
49 15 2
49 16 33
49 17 18
49 18 36
49 19 38
49 20 31
49 21 1
49 22 35
49 23 4
49 24 32
49 25 10
49 26 3
49 27 9
49 28 27
49 29 11
49 30 10
49 31 20
49 32 20
49 33 28
49 34 6
49 35 29
49 36 37
49 37 18
49 38 11
49 39 20
49 40 17
49 41 13
49 42 11
49 43 26
49 44 24
49 45 10
49 46 26
49 47 2
49 48 32
